41 22 75 56 74 73 58 
60 83 45 84 17 5 89 
27 69 1 30 9 35 34 3 77 
53 40 
51 71 65 66 20 70 
50 33 81 78 29 24 55 4 26 
42 14 44 38 86 16 61 91 100 37 95 
21 72 39 23 67 25 54 
82 47 36 46 8 18 
88 63 90 32 10 31 
2 57 15 43 87 97 98 85 93 96 
62 11 64 49 19 48 7 52 
94 92 59 99 6 13 
28 76 79 68 80 12 
